param Riesgos:=
0[1]	3		4		5	
1[1]	2		5	
2[1]	1		5		6	
3[1]	3		4	
4[1]
5[1]	1		5		6	
6[1]	5	
7[1]	3		5		6	
8[1]	1		2		6	
9[1]	3		5	
10[1]	4	
11[1]	1		6	
12[1]	3		5	
13[1]	5		6	
14[1]	5	
0[2]	1		4		5	
1[2]
2[2]	1		2	
3[2]	4	
0[3]
1[3]	4	
2[3]	1		2		3	
3[3]	3		5	
4[3]	3	
5[3]	1	
6[3]
7[3]	4		6	
8[3]	2		4	
9[3]	1		4		6	
10[3]	1		4		5	
